37 38
27
3 3 0 1
3 4 0 21
3 5 0 4
3 6 16 0
3 7 34 31
3 8 31 30
3 9 0 12
3 11 28 0
3 12 31 18
3 13 0 25
3 14 34 0
3 17 34 14
3 18 31 0
3 21 28 11
4 3 15 6
4 4 20 18
4 5 15 33
4 6 24 22
4 10 24 28
4 22 24 0
4 24 15 9
3 5 28 33
5 4 19 0
5 6 19 22
5 10 19 28
5 14 19 4
12 37 3 1
